c "source: networkx.gnm_random_graph()"
p edge 36 70
e 1 23
e 1 29
e 1 24
e 1 8
e 1 12
e 2 19
e 2 18
e 3 34
e 3 7
e 3 12
e 3 20
e 4 29
e 4 12
e 4 34
e 4 26
e 4 24
e 4 15
e 5 6
e 5 27
e 5 23
e 6 11
e 6 36
e 6 16
e 7 10
e 7 31
e 7 9
e 8 22
e 8 33
e 8 31
e 9 22
e 9 30
e 10 30
e 10 23
e 10 22
e 11 17
e 11 16
e 11 32
e 12 16
e 12 31
e 13 19
e 13 15
e 13 25
e 14 32
e 14 31
e 14 30
e 14 33
e 15 34
e 15 19
e 15 24
e 16 32
e 17 35
e 17 22
e 17 31
e 17 20
e 18 31
e 19 30
e 20 26
e 20 29
e 20 30
e 20 35
e 20 28
e 21 28
e 22 25
e 23 30
e 23 34
e 24 26
e 27 28
e 27 30
e 28 36
e 35 36
